c *********************************
c * Circuit generated by BenCGen
c *
c * Parity_440
c *
c * Ports with 1 gate(s): 1
c * Ports with 2 gate(s): 440
c * Total gates: 441
c *********************************
p cnf 881 1761
1 443 0
-1 -443 0
1 -442 0
443 -442 0
-1 -443 442 0
1 2 -444 0
-1 2 444 0
1 -2 444 0
-1 -2 -444 0
3 4 -445 0
-3 4 445 0
3 -4 445 0
-3 -4 -445 0
5 6 -446 0
-5 6 446 0
5 -6 446 0
-5 -6 -446 0
7 8 -447 0
-7 8 447 0
7 -8 447 0
-7 -8 -447 0
9 10 -448 0
-9 10 448 0
9 -10 448 0
-9 -10 -448 0
11 12 -449 0
-11 12 449 0
11 -12 449 0
-11 -12 -449 0
13 14 -450 0
-13 14 450 0
13 -14 450 0
-13 -14 -450 0
15 16 -451 0
-15 16 451 0
15 -16 451 0
-15 -16 -451 0
17 18 -452 0
-17 18 452 0
17 -18 452 0
-17 -18 -452 0
19 20 -453 0
-19 20 453 0
19 -20 453 0
-19 -20 -453 0
21 22 -454 0
-21 22 454 0
21 -22 454 0
-21 -22 -454 0
23 24 -455 0
-23 24 455 0
23 -24 455 0
-23 -24 -455 0
25 26 -456 0
-25 26 456 0
25 -26 456 0
-25 -26 -456 0
27 28 -457 0
-27 28 457 0
27 -28 457 0
-27 -28 -457 0
29 30 -458 0
-29 30 458 0
29 -30 458 0
-29 -30 -458 0
31 32 -459 0
-31 32 459 0
31 -32 459 0
-31 -32 -459 0
33 34 -460 0
-33 34 460 0
33 -34 460 0
-33 -34 -460 0
35 36 -461 0
-35 36 461 0
35 -36 461 0
-35 -36 -461 0
37 38 -462 0
-37 38 462 0
37 -38 462 0
-37 -38 -462 0
39 40 -463 0
-39 40 463 0
39 -40 463 0
-39 -40 -463 0
41 42 -464 0
-41 42 464 0
41 -42 464 0
-41 -42 -464 0
43 44 -465 0
-43 44 465 0
43 -44 465 0
-43 -44 -465 0
45 46 -466 0
-45 46 466 0
45 -46 466 0
-45 -46 -466 0
47 48 -467 0
-47 48 467 0
47 -48 467 0
-47 -48 -467 0
49 50 -468 0
-49 50 468 0
49 -50 468 0
-49 -50 -468 0
51 52 -469 0
-51 52 469 0
51 -52 469 0
-51 -52 -469 0
53 54 -470 0
-53 54 470 0
53 -54 470 0
-53 -54 -470 0
55 56 -471 0
-55 56 471 0
55 -56 471 0
-55 -56 -471 0
57 58 -472 0
-57 58 472 0
57 -58 472 0
-57 -58 -472 0
59 60 -473 0
-59 60 473 0
59 -60 473 0
-59 -60 -473 0
61 62 -474 0
-61 62 474 0
61 -62 474 0
-61 -62 -474 0
63 64 -475 0
-63 64 475 0
63 -64 475 0
-63 -64 -475 0
65 66 -476 0
-65 66 476 0
65 -66 476 0
-65 -66 -476 0
67 68 -477 0
-67 68 477 0
67 -68 477 0
-67 -68 -477 0
69 70 -478 0
-69 70 478 0
69 -70 478 0
-69 -70 -478 0
71 72 -479 0
-71 72 479 0
71 -72 479 0
-71 -72 -479 0
73 74 -480 0
-73 74 480 0
73 -74 480 0
-73 -74 -480 0
75 76 -481 0
-75 76 481 0
75 -76 481 0
-75 -76 -481 0
77 78 -482 0
-77 78 482 0
77 -78 482 0
-77 -78 -482 0
79 80 -483 0
-79 80 483 0
79 -80 483 0
-79 -80 -483 0
81 82 -484 0
-81 82 484 0
81 -82 484 0
-81 -82 -484 0
83 84 -485 0
-83 84 485 0
83 -84 485 0
-83 -84 -485 0
85 86 -486 0
-85 86 486 0
85 -86 486 0
-85 -86 -486 0
87 88 -487 0
-87 88 487 0
87 -88 487 0
-87 -88 -487 0
89 90 -488 0
-89 90 488 0
89 -90 488 0
-89 -90 -488 0
91 92 -489 0
-91 92 489 0
91 -92 489 0
-91 -92 -489 0
93 94 -490 0
-93 94 490 0
93 -94 490 0
-93 -94 -490 0
95 96 -491 0
-95 96 491 0
95 -96 491 0
-95 -96 -491 0
97 98 -492 0
-97 98 492 0
97 -98 492 0
-97 -98 -492 0
99 100 -493 0
-99 100 493 0
99 -100 493 0
-99 -100 -493 0
101 102 -494 0
-101 102 494 0
101 -102 494 0
-101 -102 -494 0
103 104 -495 0
-103 104 495 0
103 -104 495 0
-103 -104 -495 0
105 106 -496 0
-105 106 496 0
105 -106 496 0
-105 -106 -496 0
107 108 -497 0
-107 108 497 0
107 -108 497 0
-107 -108 -497 0
109 110 -498 0
-109 110 498 0
109 -110 498 0
-109 -110 -498 0
111 112 -499 0
-111 112 499 0
111 -112 499 0
-111 -112 -499 0
113 114 -500 0
-113 114 500 0
113 -114 500 0
-113 -114 -500 0
115 116 -501 0
-115 116 501 0
115 -116 501 0
-115 -116 -501 0
117 118 -502 0
-117 118 502 0
117 -118 502 0
-117 -118 -502 0
119 120 -503 0
-119 120 503 0
119 -120 503 0
-119 -120 -503 0
121 122 -504 0
-121 122 504 0
121 -122 504 0
-121 -122 -504 0
123 124 -505 0
-123 124 505 0
123 -124 505 0
-123 -124 -505 0
125 126 -506 0
-125 126 506 0
125 -126 506 0
-125 -126 -506 0
127 128 -507 0
-127 128 507 0
127 -128 507 0
-127 -128 -507 0
129 130 -508 0
-129 130 508 0
129 -130 508 0
-129 -130 -508 0
131 132 -509 0
-131 132 509 0
131 -132 509 0
-131 -132 -509 0
133 134 -510 0
-133 134 510 0
133 -134 510 0
-133 -134 -510 0
135 136 -511 0
-135 136 511 0
135 -136 511 0
-135 -136 -511 0
137 138 -512 0
-137 138 512 0
137 -138 512 0
-137 -138 -512 0
139 140 -513 0
-139 140 513 0
139 -140 513 0
-139 -140 -513 0
141 142 -514 0
-141 142 514 0
141 -142 514 0
-141 -142 -514 0
143 144 -515 0
-143 144 515 0
143 -144 515 0
-143 -144 -515 0
145 146 -516 0
-145 146 516 0
145 -146 516 0
-145 -146 -516 0
147 148 -517 0
-147 148 517 0
147 -148 517 0
-147 -148 -517 0
149 150 -518 0
-149 150 518 0
149 -150 518 0
-149 -150 -518 0
151 152 -519 0
-151 152 519 0
151 -152 519 0
-151 -152 -519 0
153 154 -520 0
-153 154 520 0
153 -154 520 0
-153 -154 -520 0
155 156 -521 0
-155 156 521 0
155 -156 521 0
-155 -156 -521 0
157 158 -522 0
-157 158 522 0
157 -158 522 0
-157 -158 -522 0
159 160 -523 0
-159 160 523 0
159 -160 523 0
-159 -160 -523 0
161 162 -524 0
-161 162 524 0
161 -162 524 0
-161 -162 -524 0
163 164 -525 0
-163 164 525 0
163 -164 525 0
-163 -164 -525 0
165 166 -526 0
-165 166 526 0
165 -166 526 0
-165 -166 -526 0
167 168 -527 0
-167 168 527 0
167 -168 527 0
-167 -168 -527 0
169 170 -528 0
-169 170 528 0
169 -170 528 0
-169 -170 -528 0
171 172 -529 0
-171 172 529 0
171 -172 529 0
-171 -172 -529 0
173 174 -530 0
-173 174 530 0
173 -174 530 0
-173 -174 -530 0
175 176 -531 0
-175 176 531 0
175 -176 531 0
-175 -176 -531 0
177 178 -532 0
-177 178 532 0
177 -178 532 0
-177 -178 -532 0
179 180 -533 0
-179 180 533 0
179 -180 533 0
-179 -180 -533 0
181 182 -534 0
-181 182 534 0
181 -182 534 0
-181 -182 -534 0
183 184 -535 0
-183 184 535 0
183 -184 535 0
-183 -184 -535 0
185 186 -536 0
-185 186 536 0
185 -186 536 0
-185 -186 -536 0
187 188 -537 0
-187 188 537 0
187 -188 537 0
-187 -188 -537 0
189 190 -538 0
-189 190 538 0
189 -190 538 0
-189 -190 -538 0
191 192 -539 0
-191 192 539 0
191 -192 539 0
-191 -192 -539 0
193 194 -540 0
-193 194 540 0
193 -194 540 0
-193 -194 -540 0
195 196 -541 0
-195 196 541 0
195 -196 541 0
-195 -196 -541 0
197 198 -542 0
-197 198 542 0
197 -198 542 0
-197 -198 -542 0
199 200 -543 0
-199 200 543 0
199 -200 543 0
-199 -200 -543 0
201 202 -544 0
-201 202 544 0
201 -202 544 0
-201 -202 -544 0
203 204 -545 0
-203 204 545 0
203 -204 545 0
-203 -204 -545 0
205 206 -546 0
-205 206 546 0
205 -206 546 0
-205 -206 -546 0
207 208 -547 0
-207 208 547 0
207 -208 547 0
-207 -208 -547 0
209 210 -548 0
-209 210 548 0
209 -210 548 0
-209 -210 -548 0
211 212 -549 0
-211 212 549 0
211 -212 549 0
-211 -212 -549 0
213 214 -550 0
-213 214 550 0
213 -214 550 0
-213 -214 -550 0
215 216 -551 0
-215 216 551 0
215 -216 551 0
-215 -216 -551 0
217 218 -552 0
-217 218 552 0
217 -218 552 0
-217 -218 -552 0
219 220 -553 0
-219 220 553 0
219 -220 553 0
-219 -220 -553 0
221 222 -554 0
-221 222 554 0
221 -222 554 0
-221 -222 -554 0
223 224 -555 0
-223 224 555 0
223 -224 555 0
-223 -224 -555 0
225 226 -556 0
-225 226 556 0
225 -226 556 0
-225 -226 -556 0
227 228 -557 0
-227 228 557 0
227 -228 557 0
-227 -228 -557 0
229 230 -558 0
-229 230 558 0
229 -230 558 0
-229 -230 -558 0
231 232 -559 0
-231 232 559 0
231 -232 559 0
-231 -232 -559 0
233 234 -560 0
-233 234 560 0
233 -234 560 0
-233 -234 -560 0
235 236 -561 0
-235 236 561 0
235 -236 561 0
-235 -236 -561 0
237 238 -562 0
-237 238 562 0
237 -238 562 0
-237 -238 -562 0
239 240 -563 0
-239 240 563 0
239 -240 563 0
-239 -240 -563 0
241 242 -564 0
-241 242 564 0
241 -242 564 0
-241 -242 -564 0
243 244 -565 0
-243 244 565 0
243 -244 565 0
-243 -244 -565 0
245 246 -566 0
-245 246 566 0
245 -246 566 0
-245 -246 -566 0
247 248 -567 0
-247 248 567 0
247 -248 567 0
-247 -248 -567 0
249 250 -568 0
-249 250 568 0
249 -250 568 0
-249 -250 -568 0
251 252 -569 0
-251 252 569 0
251 -252 569 0
-251 -252 -569 0
253 254 -570 0
-253 254 570 0
253 -254 570 0
-253 -254 -570 0
255 256 -571 0
-255 256 571 0
255 -256 571 0
-255 -256 -571 0
257 258 -572 0
-257 258 572 0
257 -258 572 0
-257 -258 -572 0
259 260 -573 0
-259 260 573 0
259 -260 573 0
-259 -260 -573 0
261 262 -574 0
-261 262 574 0
261 -262 574 0
-261 -262 -574 0
263 264 -575 0
-263 264 575 0
263 -264 575 0
-263 -264 -575 0
265 266 -576 0
-265 266 576 0
265 -266 576 0
-265 -266 -576 0
267 268 -577 0
-267 268 577 0
267 -268 577 0
-267 -268 -577 0
269 270 -578 0
-269 270 578 0
269 -270 578 0
-269 -270 -578 0
271 272 -579 0
-271 272 579 0
271 -272 579 0
-271 -272 -579 0
273 274 -580 0
-273 274 580 0
273 -274 580 0
-273 -274 -580 0
275 276 -581 0
-275 276 581 0
275 -276 581 0
-275 -276 -581 0
277 278 -582 0
-277 278 582 0
277 -278 582 0
-277 -278 -582 0
279 280 -583 0
-279 280 583 0
279 -280 583 0
-279 -280 -583 0
281 282 -584 0
-281 282 584 0
281 -282 584 0
-281 -282 -584 0
283 284 -585 0
-283 284 585 0
283 -284 585 0
-283 -284 -585 0
285 286 -586 0
-285 286 586 0
285 -286 586 0
-285 -286 -586 0
287 288 -587 0
-287 288 587 0
287 -288 587 0
-287 -288 -587 0
289 290 -588 0
-289 290 588 0
289 -290 588 0
-289 -290 -588 0
291 292 -589 0
-291 292 589 0
291 -292 589 0
-291 -292 -589 0
293 294 -590 0
-293 294 590 0
293 -294 590 0
-293 -294 -590 0
295 296 -591 0
-295 296 591 0
295 -296 591 0
-295 -296 -591 0
297 298 -592 0
-297 298 592 0
297 -298 592 0
-297 -298 -592 0
299 300 -593 0
-299 300 593 0
299 -300 593 0
-299 -300 -593 0
301 302 -594 0
-301 302 594 0
301 -302 594 0
-301 -302 -594 0
303 304 -595 0
-303 304 595 0
303 -304 595 0
-303 -304 -595 0
305 306 -596 0
-305 306 596 0
305 -306 596 0
-305 -306 -596 0
307 308 -597 0
-307 308 597 0
307 -308 597 0
-307 -308 -597 0
309 310 -598 0
-309 310 598 0
309 -310 598 0
-309 -310 -598 0
311 312 -599 0
-311 312 599 0
311 -312 599 0
-311 -312 -599 0
313 314 -600 0
-313 314 600 0
313 -314 600 0
-313 -314 -600 0
315 316 -601 0
-315 316 601 0
315 -316 601 0
-315 -316 -601 0
317 318 -602 0
-317 318 602 0
317 -318 602 0
-317 -318 -602 0
319 320 -603 0
-319 320 603 0
319 -320 603 0
-319 -320 -603 0
321 322 -604 0
-321 322 604 0
321 -322 604 0
-321 -322 -604 0
323 324 -605 0
-323 324 605 0
323 -324 605 0
-323 -324 -605 0
325 326 -606 0
-325 326 606 0
325 -326 606 0
-325 -326 -606 0
327 328 -607 0
-327 328 607 0
327 -328 607 0
-327 -328 -607 0
329 330 -608 0
-329 330 608 0
329 -330 608 0
-329 -330 -608 0
331 332 -609 0
-331 332 609 0
331 -332 609 0
-331 -332 -609 0
333 334 -610 0
-333 334 610 0
333 -334 610 0
-333 -334 -610 0
335 336 -611 0
-335 336 611 0
335 -336 611 0
-335 -336 -611 0
337 338 -612 0
-337 338 612 0
337 -338 612 0
-337 -338 -612 0
339 340 -613 0
-339 340 613 0
339 -340 613 0
-339 -340 -613 0
341 342 -614 0
-341 342 614 0
341 -342 614 0
-341 -342 -614 0
343 344 -615 0
-343 344 615 0
343 -344 615 0
-343 -344 -615 0
345 346 -616 0
-345 346 616 0
345 -346 616 0
-345 -346 -616 0
347 348 -617 0
-347 348 617 0
347 -348 617 0
-347 -348 -617 0
349 350 -618 0
-349 350 618 0
349 -350 618 0
-349 -350 -618 0
351 352 -619 0
-351 352 619 0
351 -352 619 0
-351 -352 -619 0
353 354 -620 0
-353 354 620 0
353 -354 620 0
-353 -354 -620 0
355 356 -621 0
-355 356 621 0
355 -356 621 0
-355 -356 -621 0
357 358 -622 0
-357 358 622 0
357 -358 622 0
-357 -358 -622 0
359 360 -623 0
-359 360 623 0
359 -360 623 0
-359 -360 -623 0
361 362 -624 0
-361 362 624 0
361 -362 624 0
-361 -362 -624 0
363 364 -625 0
-363 364 625 0
363 -364 625 0
-363 -364 -625 0
365 366 -626 0
-365 366 626 0
365 -366 626 0
-365 -366 -626 0
367 368 -627 0
-367 368 627 0
367 -368 627 0
-367 -368 -627 0
369 370 -628 0
-369 370 628 0
369 -370 628 0
-369 -370 -628 0
371 372 -629 0
-371 372 629 0
371 -372 629 0
-371 -372 -629 0
373 374 -630 0
-373 374 630 0
373 -374 630 0
-373 -374 -630 0
375 376 -631 0
-375 376 631 0
375 -376 631 0
-375 -376 -631 0
377 378 -632 0
-377 378 632 0
377 -378 632 0
-377 -378 -632 0
379 380 -633 0
-379 380 633 0
379 -380 633 0
-379 -380 -633 0
381 382 -634 0
-381 382 634 0
381 -382 634 0
-381 -382 -634 0
383 384 -635 0
-383 384 635 0
383 -384 635 0
-383 -384 -635 0
385 386 -636 0
-385 386 636 0
385 -386 636 0
-385 -386 -636 0
387 388 -637 0
-387 388 637 0
387 -388 637 0
-387 -388 -637 0
389 390 -638 0
-389 390 638 0
389 -390 638 0
-389 -390 -638 0
391 392 -639 0
-391 392 639 0
391 -392 639 0
-391 -392 -639 0
393 394 -640 0
-393 394 640 0
393 -394 640 0
-393 -394 -640 0
395 396 -641 0
-395 396 641 0
395 -396 641 0
-395 -396 -641 0
397 398 -642 0
-397 398 642 0
397 -398 642 0
-397 -398 -642 0
399 400 -643 0
-399 400 643 0
399 -400 643 0
-399 -400 -643 0
401 402 -644 0
-401 402 644 0
401 -402 644 0
-401 -402 -644 0
403 404 -645 0
-403 404 645 0
403 -404 645 0
-403 -404 -645 0
405 406 -646 0
-405 406 646 0
405 -406 646 0
-405 -406 -646 0
407 408 -647 0
-407 408 647 0
407 -408 647 0
-407 -408 -647 0
409 410 -648 0
-409 410 648 0
409 -410 648 0
-409 -410 -648 0
411 412 -649 0
-411 412 649 0
411 -412 649 0
-411 -412 -649 0
413 414 -650 0
-413 414 650 0
413 -414 650 0
-413 -414 -650 0
415 416 -651 0
-415 416 651 0
415 -416 651 0
-415 -416 -651 0
417 418 -652 0
-417 418 652 0
417 -418 652 0
-417 -418 -652 0
419 420 -653 0
-419 420 653 0
419 -420 653 0
-419 -420 -653 0
421 422 -654 0
-421 422 654 0
421 -422 654 0
-421 -422 -654 0
423 424 -655 0
-423 424 655 0
423 -424 655 0
-423 -424 -655 0
425 426 -656 0
-425 426 656 0
425 -426 656 0
-425 -426 -656 0
427 428 -657 0
-427 428 657 0
427 -428 657 0
-427 -428 -657 0
429 430 -658 0
-429 430 658 0
429 -430 658 0
-429 -430 -658 0
431 432 -659 0
-431 432 659 0
431 -432 659 0
-431 -432 -659 0
433 434 -660 0
-433 434 660 0
433 -434 660 0
-433 -434 -660 0
435 436 -661 0
-435 436 661 0
435 -436 661 0
-435 -436 -661 0
437 438 -662 0
-437 438 662 0
437 -438 662 0
-437 -438 -662 0
439 440 -663 0
-439 440 663 0
439 -440 663 0
-439 -440 -663 0
444 445 -664 0
-444 445 664 0
444 -445 664 0
-444 -445 -664 0
446 447 -665 0
-446 447 665 0
446 -447 665 0
-446 -447 -665 0
448 449 -666 0
-448 449 666 0
448 -449 666 0
-448 -449 -666 0
450 451 -667 0
-450 451 667 0
450 -451 667 0
-450 -451 -667 0
452 453 -668 0
-452 453 668 0
452 -453 668 0
-452 -453 -668 0
454 455 -669 0
-454 455 669 0
454 -455 669 0
-454 -455 -669 0
456 457 -670 0
-456 457 670 0
456 -457 670 0
-456 -457 -670 0
458 459 -671 0
-458 459 671 0
458 -459 671 0
-458 -459 -671 0
460 461 -672 0
-460 461 672 0
460 -461 672 0
-460 -461 -672 0
462 463 -673 0
-462 463 673 0
462 -463 673 0
-462 -463 -673 0
464 465 -674 0
-464 465 674 0
464 -465 674 0
-464 -465 -674 0
466 467 -675 0
-466 467 675 0
466 -467 675 0
-466 -467 -675 0
468 469 -676 0
-468 469 676 0
468 -469 676 0
-468 -469 -676 0
470 471 -677 0
-470 471 677 0
470 -471 677 0
-470 -471 -677 0
472 473 -678 0
-472 473 678 0
472 -473 678 0
-472 -473 -678 0
474 475 -679 0
-474 475 679 0
474 -475 679 0
-474 -475 -679 0
476 477 -680 0
-476 477 680 0
476 -477 680 0
-476 -477 -680 0
478 479 -681 0
-478 479 681 0
478 -479 681 0
-478 -479 -681 0
480 481 -682 0
-480 481 682 0
480 -481 682 0
-480 -481 -682 0
482 483 -683 0
-482 483 683 0
482 -483 683 0
-482 -483 -683 0
484 485 -684 0
-484 485 684 0
484 -485 684 0
-484 -485 -684 0
486 487 -685 0
-486 487 685 0
486 -487 685 0
-486 -487 -685 0
488 489 -686 0
-488 489 686 0
488 -489 686 0
-488 -489 -686 0
490 491 -687 0
-490 491 687 0
490 -491 687 0
-490 -491 -687 0
492 493 -688 0
-492 493 688 0
492 -493 688 0
-492 -493 -688 0
494 495 -689 0
-494 495 689 0
494 -495 689 0
-494 -495 -689 0
496 497 -690 0
-496 497 690 0
496 -497 690 0
-496 -497 -690 0
498 499 -691 0
-498 499 691 0
498 -499 691 0
-498 -499 -691 0
500 501 -692 0
-500 501 692 0
500 -501 692 0
-500 -501 -692 0
502 503 -693 0
-502 503 693 0
502 -503 693 0
-502 -503 -693 0
504 505 -694 0
-504 505 694 0
504 -505 694 0
-504 -505 -694 0
506 507 -695 0
-506 507 695 0
506 -507 695 0
-506 -507 -695 0
508 509 -696 0
-508 509 696 0
508 -509 696 0
-508 -509 -696 0
510 511 -697 0
-510 511 697 0
510 -511 697 0
-510 -511 -697 0
512 513 -698 0
-512 513 698 0
512 -513 698 0
-512 -513 -698 0
514 515 -699 0
-514 515 699 0
514 -515 699 0
-514 -515 -699 0
516 517 -700 0
-516 517 700 0
516 -517 700 0
-516 -517 -700 0
518 519 -701 0
-518 519 701 0
518 -519 701 0
-518 -519 -701 0
520 521 -702 0
-520 521 702 0
520 -521 702 0
-520 -521 -702 0
522 523 -703 0
-522 523 703 0
522 -523 703 0
-522 -523 -703 0
524 525 -704 0
-524 525 704 0
524 -525 704 0
-524 -525 -704 0
526 527 -705 0
-526 527 705 0
526 -527 705 0
-526 -527 -705 0
528 529 -706 0
-528 529 706 0
528 -529 706 0
-528 -529 -706 0
530 531 -707 0
-530 531 707 0
530 -531 707 0
-530 -531 -707 0
532 533 -708 0
-532 533 708 0
532 -533 708 0
-532 -533 -708 0
534 535 -709 0
-534 535 709 0
534 -535 709 0
-534 -535 -709 0
536 537 -710 0
-536 537 710 0
536 -537 710 0
-536 -537 -710 0
538 539 -711 0
-538 539 711 0
538 -539 711 0
-538 -539 -711 0
540 541 -712 0
-540 541 712 0
540 -541 712 0
-540 -541 -712 0
542 543 -713 0
-542 543 713 0
542 -543 713 0
-542 -543 -713 0
544 545 -714 0
-544 545 714 0
544 -545 714 0
-544 -545 -714 0
546 547 -715 0
-546 547 715 0
546 -547 715 0
-546 -547 -715 0
548 549 -716 0
-548 549 716 0
548 -549 716 0
-548 -549 -716 0
550 551 -717 0
-550 551 717 0
550 -551 717 0
-550 -551 -717 0
552 553 -718 0
-552 553 718 0
552 -553 718 0
-552 -553 -718 0
554 555 -719 0
-554 555 719 0
554 -555 719 0
-554 -555 -719 0
556 557 -720 0
-556 557 720 0
556 -557 720 0
-556 -557 -720 0
558 559 -721 0
-558 559 721 0
558 -559 721 0
-558 -559 -721 0
560 561 -722 0
-560 561 722 0
560 -561 722 0
-560 -561 -722 0
562 563 -723 0
-562 563 723 0
562 -563 723 0
-562 -563 -723 0
564 565 -724 0
-564 565 724 0
564 -565 724 0
-564 -565 -724 0
566 567 -725 0
-566 567 725 0
566 -567 725 0
-566 -567 -725 0
568 569 -726 0
-568 569 726 0
568 -569 726 0
-568 -569 -726 0
570 571 -727 0
-570 571 727 0
570 -571 727 0
-570 -571 -727 0
572 573 -728 0
-572 573 728 0
572 -573 728 0
-572 -573 -728 0
574 575 -729 0
-574 575 729 0
574 -575 729 0
-574 -575 -729 0
576 577 -730 0
-576 577 730 0
576 -577 730 0
-576 -577 -730 0
578 579 -731 0
-578 579 731 0
578 -579 731 0
-578 -579 -731 0
580 581 -732 0
-580 581 732 0
580 -581 732 0
-580 -581 -732 0
582 583 -733 0
-582 583 733 0
582 -583 733 0
-582 -583 -733 0
584 585 -734 0
-584 585 734 0
584 -585 734 0
-584 -585 -734 0
586 587 -735 0
-586 587 735 0
586 -587 735 0
-586 -587 -735 0
588 589 -736 0
-588 589 736 0
588 -589 736 0
-588 -589 -736 0
590 591 -737 0
-590 591 737 0
590 -591 737 0
-590 -591 -737 0
592 593 -738 0
-592 593 738 0
592 -593 738 0
-592 -593 -738 0
594 595 -739 0
-594 595 739 0
594 -595 739 0
-594 -595 -739 0
596 597 -740 0
-596 597 740 0
596 -597 740 0
-596 -597 -740 0
598 599 -741 0
-598 599 741 0
598 -599 741 0
-598 -599 -741 0
600 601 -742 0
-600 601 742 0
600 -601 742 0
-600 -601 -742 0
602 603 -743 0
-602 603 743 0
602 -603 743 0
-602 -603 -743 0
604 605 -744 0
-604 605 744 0
604 -605 744 0
-604 -605 -744 0
606 607 -745 0
-606 607 745 0
606 -607 745 0
-606 -607 -745 0
608 609 -746 0
-608 609 746 0
608 -609 746 0
-608 -609 -746 0
610 611 -747 0
-610 611 747 0
610 -611 747 0
-610 -611 -747 0
612 613 -748 0
-612 613 748 0
612 -613 748 0
-612 -613 -748 0
614 615 -749 0
-614 615 749 0
614 -615 749 0
-614 -615 -749 0
616 617 -750 0
-616 617 750 0
616 -617 750 0
-616 -617 -750 0
618 619 -751 0
-618 619 751 0
618 -619 751 0
-618 -619 -751 0
620 621 -752 0
-620 621 752 0
620 -621 752 0
-620 -621 -752 0
622 623 -753 0
-622 623 753 0
622 -623 753 0
-622 -623 -753 0
624 625 -754 0
-624 625 754 0
624 -625 754 0
-624 -625 -754 0
626 627 -755 0
-626 627 755 0
626 -627 755 0
-626 -627 -755 0
628 629 -756 0
-628 629 756 0
628 -629 756 0
-628 -629 -756 0
630 631 -757 0
-630 631 757 0
630 -631 757 0
-630 -631 -757 0
632 633 -758 0
-632 633 758 0
632 -633 758 0
-632 -633 -758 0
634 635 -759 0
-634 635 759 0
634 -635 759 0
-634 -635 -759 0
636 637 -760 0
-636 637 760 0
636 -637 760 0
-636 -637 -760 0
638 639 -761 0
-638 639 761 0
638 -639 761 0
-638 -639 -761 0
640 641 -762 0
-640 641 762 0
640 -641 762 0
-640 -641 -762 0
642 643 -763 0
-642 643 763 0
642 -643 763 0
-642 -643 -763 0
644 645 -764 0
-644 645 764 0
644 -645 764 0
-644 -645 -764 0
646 647 -765 0
-646 647 765 0
646 -647 765 0
-646 -647 -765 0
648 649 -766 0
-648 649 766 0
648 -649 766 0
-648 -649 -766 0
650 651 -767 0
-650 651 767 0
650 -651 767 0
-650 -651 -767 0
652 653 -768 0
-652 653 768 0
652 -653 768 0
-652 -653 -768 0
654 655 -769 0
-654 655 769 0
654 -655 769 0
-654 -655 -769 0
656 657 -770 0
-656 657 770 0
656 -657 770 0
-656 -657 -770 0
658 659 -771 0
-658 659 771 0
658 -659 771 0
-658 -659 -771 0
660 661 -772 0
-660 661 772 0
660 -661 772 0
-660 -661 -772 0
662 663 -773 0
-662 663 773 0
662 -663 773 0
-662 -663 -773 0
664 665 -774 0
-664 665 774 0
664 -665 774 0
-664 -665 -774 0
666 667 -775 0
-666 667 775 0
666 -667 775 0
-666 -667 -775 0
668 669 -776 0
-668 669 776 0
668 -669 776 0
-668 -669 -776 0
670 671 -777 0
-670 671 777 0
670 -671 777 0
-670 -671 -777 0
672 673 -778 0
-672 673 778 0
672 -673 778 0
-672 -673 -778 0
674 675 -779 0
-674 675 779 0
674 -675 779 0
-674 -675 -779 0
676 677 -780 0
-676 677 780 0
676 -677 780 0
-676 -677 -780 0
678 679 -781 0
-678 679 781 0
678 -679 781 0
-678 -679 -781 0
680 681 -782 0
-680 681 782 0
680 -681 782 0
-680 -681 -782 0
682 683 -783 0
-682 683 783 0
682 -683 783 0
-682 -683 -783 0
684 685 -784 0
-684 685 784 0
684 -685 784 0
-684 -685 -784 0
686 687 -785 0
-686 687 785 0
686 -687 785 0
-686 -687 -785 0
688 689 -786 0
-688 689 786 0
688 -689 786 0
-688 -689 -786 0
690 691 -787 0
-690 691 787 0
690 -691 787 0
-690 -691 -787 0
692 693 -788 0
-692 693 788 0
692 -693 788 0
-692 -693 -788 0
694 695 -789 0
-694 695 789 0
694 -695 789 0
-694 -695 -789 0
696 697 -790 0
-696 697 790 0
696 -697 790 0
-696 -697 -790 0
698 699 -791 0
-698 699 791 0
698 -699 791 0
-698 -699 -791 0
700 701 -792 0
-700 701 792 0
700 -701 792 0
-700 -701 -792 0
702 703 -793 0
-702 703 793 0
702 -703 793 0
-702 -703 -793 0
704 705 -794 0
-704 705 794 0
704 -705 794 0
-704 -705 -794 0
706 707 -795 0
-706 707 795 0
706 -707 795 0
-706 -707 -795 0
708 709 -796 0
-708 709 796 0
708 -709 796 0
-708 -709 -796 0
710 711 -797 0
-710 711 797 0
710 -711 797 0
-710 -711 -797 0
712 713 -798 0
-712 713 798 0
712 -713 798 0
-712 -713 -798 0
714 715 -799 0
-714 715 799 0
714 -715 799 0
-714 -715 -799 0
716 717 -800 0
-716 717 800 0
716 -717 800 0
-716 -717 -800 0
718 719 -801 0
-718 719 801 0
718 -719 801 0
-718 -719 -801 0
720 721 -802 0
-720 721 802 0
720 -721 802 0
-720 -721 -802 0
722 723 -803 0
-722 723 803 0
722 -723 803 0
-722 -723 -803 0
724 725 -804 0
-724 725 804 0
724 -725 804 0
-724 -725 -804 0
726 727 -805 0
-726 727 805 0
726 -727 805 0
-726 -727 -805 0
728 729 -806 0
-728 729 806 0
728 -729 806 0
-728 -729 -806 0
730 731 -807 0
-730 731 807 0
730 -731 807 0
-730 -731 -807 0
732 733 -808 0
-732 733 808 0
732 -733 808 0
-732 -733 -808 0
734 735 -809 0
-734 735 809 0
734 -735 809 0
-734 -735 -809 0
736 737 -810 0
-736 737 810 0
736 -737 810 0
-736 -737 -810 0
738 739 -811 0
-738 739 811 0
738 -739 811 0
-738 -739 -811 0
740 741 -812 0
-740 741 812 0
740 -741 812 0
-740 -741 -812 0
742 743 -813 0
-742 743 813 0
742 -743 813 0
-742 -743 -813 0
744 745 -814 0
-744 745 814 0
744 -745 814 0
-744 -745 -814 0
746 747 -815 0
-746 747 815 0
746 -747 815 0
-746 -747 -815 0
748 749 -816 0
-748 749 816 0
748 -749 816 0
-748 -749 -816 0
750 751 -817 0
-750 751 817 0
750 -751 817 0
-750 -751 -817 0
752 753 -818 0
-752 753 818 0
752 -753 818 0
-752 -753 -818 0
754 755 -819 0
-754 755 819 0
754 -755 819 0
-754 -755 -819 0
756 757 -820 0
-756 757 820 0
756 -757 820 0
-756 -757 -820 0
758 759 -821 0
-758 759 821 0
758 -759 821 0
-758 -759 -821 0
760 761 -822 0
-760 761 822 0
760 -761 822 0
-760 -761 -822 0
762 763 -823 0
-762 763 823 0
762 -763 823 0
-762 -763 -823 0
764 765 -824 0
-764 765 824 0
764 -765 824 0
-764 -765 -824 0
766 767 -825 0
-766 767 825 0
766 -767 825 0
-766 -767 -825 0
768 769 -826 0
-768 769 826 0
768 -769 826 0
-768 -769 -826 0
770 771 -827 0
-770 771 827 0
770 -771 827 0
-770 -771 -827 0
772 773 -828 0
-772 773 828 0
772 -773 828 0
-772 -773 -828 0
774 775 -829 0
-774 775 829 0
774 -775 829 0
-774 -775 -829 0
776 777 -830 0
-776 777 830 0
776 -777 830 0
-776 -777 -830 0
778 779 -831 0
-778 779 831 0
778 -779 831 0
-778 -779 -831 0
780 781 -832 0
-780 781 832 0
780 -781 832 0
-780 -781 -832 0
782 783 -833 0
-782 783 833 0
782 -783 833 0
-782 -783 -833 0
784 785 -834 0
-784 785 834 0
784 -785 834 0
-784 -785 -834 0
786 787 -835 0
-786 787 835 0
786 -787 835 0
-786 -787 -835 0
788 789 -836 0
-788 789 836 0
788 -789 836 0
-788 -789 -836 0
790 791 -837 0
-790 791 837 0
790 -791 837 0
-790 -791 -837 0
792 793 -838 0
-792 793 838 0
792 -793 838 0
-792 -793 -838 0
794 795 -839 0
-794 795 839 0
794 -795 839 0
-794 -795 -839 0
796 797 -840 0
-796 797 840 0
796 -797 840 0
-796 -797 -840 0
798 799 -841 0
-798 799 841 0
798 -799 841 0
-798 -799 -841 0
800 801 -842 0
-800 801 842 0
800 -801 842 0
-800 -801 -842 0
802 803 -843 0
-802 803 843 0
802 -803 843 0
-802 -803 -843 0
804 805 -844 0
-804 805 844 0
804 -805 844 0
-804 -805 -844 0
806 807 -845 0
-806 807 845 0
806 -807 845 0
-806 -807 -845 0
808 809 -846 0
-808 809 846 0
808 -809 846 0
-808 -809 -846 0
810 811 -847 0
-810 811 847 0
810 -811 847 0
-810 -811 -847 0
812 813 -848 0
-812 813 848 0
812 -813 848 0
-812 -813 -848 0
814 815 -849 0
-814 815 849 0
814 -815 849 0
-814 -815 -849 0
816 817 -850 0
-816 817 850 0
816 -817 850 0
-816 -817 -850 0
818 819 -851 0
-818 819 851 0
818 -819 851 0
-818 -819 -851 0
820 821 -852 0
-820 821 852 0
820 -821 852 0
-820 -821 -852 0
822 823 -853 0
-822 823 853 0
822 -823 853 0
-822 -823 -853 0
824 825 -854 0
-824 825 854 0
824 -825 854 0
-824 -825 -854 0
826 827 -855 0
-826 827 855 0
826 -827 855 0
-826 -827 -855 0
829 830 -856 0
-829 830 856 0
829 -830 856 0
-829 -830 -856 0
831 832 -857 0
-831 832 857 0
831 -832 857 0
-831 -832 -857 0
833 834 -858 0
-833 834 858 0
833 -834 858 0
-833 -834 -858 0
835 836 -859 0
-835 836 859 0
835 -836 859 0
-835 -836 -859 0
837 838 -860 0
-837 838 860 0
837 -838 860 0
-837 -838 -860 0
839 840 -861 0
-839 840 861 0
839 -840 861 0
-839 -840 -861 0
841 842 -862 0
-841 842 862 0
841 -842 862 0
-841 -842 -862 0
843 844 -863 0
-843 844 863 0
843 -844 863 0
-843 -844 -863 0
845 846 -864 0
-845 846 864 0
845 -846 864 0
-845 -846 -864 0
847 848 -865 0
-847 848 865 0
847 -848 865 0
-847 -848 -865 0
849 850 -866 0
-849 850 866 0
849 -850 866 0
-849 -850 -866 0
851 852 -867 0
-851 852 867 0
851 -852 867 0
-851 -852 -867 0
853 854 -868 0
-853 854 868 0
853 -854 868 0
-853 -854 -868 0
855 828 -869 0
-855 828 869 0
855 -828 869 0
-855 -828 -869 0
856 857 -870 0
-856 857 870 0
856 -857 870 0
-856 -857 -870 0
858 859 -871 0
-858 859 871 0
858 -859 871 0
-858 -859 -871 0
860 861 -872 0
-860 861 872 0
860 -861 872 0
-860 -861 -872 0
862 863 -873 0
-862 863 873 0
862 -863 873 0
-862 -863 -873 0
864 865 -874 0
-864 865 874 0
864 -865 874 0
-864 -865 -874 0
866 867 -875 0
-866 867 875 0
866 -867 875 0
-866 -867 -875 0
868 869 -876 0
-868 869 876 0
868 -869 876 0
-868 -869 -876 0
870 871 -877 0
-870 871 877 0
870 -871 877 0
-870 -871 -877 0
872 873 -878 0
-872 873 878 0
872 -873 878 0
-872 -873 -878 0
874 875 -879 0
-874 875 879 0
874 -875 879 0
-874 -875 -879 0
877 878 -880 0
-877 878 880 0
877 -878 880 0
-877 -878 -880 0
879 876 -881 0
-879 876 881 0
879 -876 881 0
-879 -876 -881 0
880 881 -441 0
-880 881 441 0
880 -881 441 0
-880 -881 -441 0
